(set-logic QF_S)
(declare-fun var0 () String)
(declare-fun var1 () String)
(declare-fun var2 () String)
(declare-fun var3 () String)
(declare-fun var4 () String)
(declare-fun var5 () String)
(declare-fun var6 () String)
(declare-fun var7 () String)
(declare-fun var8 () String)
(declare-fun var9 () String)
(declare-fun var10 () String)
(declare-fun var11 () String)
(declare-fun var12 () String)
(declare-fun var13 () String)
(declare-fun var14 () String)
(declare-fun var15 () String)
(declare-fun var16 () String)
(declare-fun var17 () String)
(declare-fun var18 () String)
(declare-fun var19 () String)
(declare-fun var20 () String)
(declare-fun var21 () String)
(declare-fun var22 () String)
(declare-fun var23 () String)
(declare-fun var24 () String)
(declare-fun var25 () String)
(declare-fun var26 () String)
(declare-fun var27 () String)
(declare-fun var28 () String)
(declare-fun var29 () String)
(declare-fun var30 () String)
(declare-fun var31 () String)
(declare-fun var32 () String)
(declare-fun var33 () String)
(declare-fun var34 () String)
(declare-fun var35 () String)
(declare-fun var36 () String)
(declare-fun var37 () String)
(declare-fun var38 () String)
(declare-fun var39 () String)
(declare-fun var40 () String)
(declare-fun var41 () String)
(declare-fun var42 () String)
(declare-fun var43 () String)
(declare-fun var44 () String)
(declare-fun var45 () String)
(declare-fun var46 () String)
(declare-fun var47 () String)
(declare-fun var48 () String)
(declare-fun var49 () String)
(declare-fun var50 () String)
(declare-fun var51 () String)
(declare-fun var52 () String)
(declare-fun var53 () String)
(declare-fun var54 () String)
(declare-fun var55 () String)
(declare-fun var56 () String)
(declare-fun var57 () String)
(declare-fun var58 () String)
(declare-fun var59 () String)
(declare-fun var60 () String)
(assert (= var0 (str.++ var1 var2)))
(assert (= var2 (str.++ var3 var4)))
(assert (= var4 (str.++ var5 var6)))
(assert (= var6 (str.++ var7 var8)))
(assert (= var8 (str.++ var9 var10)))
(assert (= var10 (str.++ var11 var12)))
(assert (= var12 (str.++ var13 var14)))
(assert (= var14 (str.++ var15 var16)))
(assert (= var16 (str.++ var17 var18)))
(assert (= var18 (str.++ var19 var20)))
(assert (= var20 (str.++ var21 var22)))
(assert (= var22 (str.++ var23 var24)))
(assert (= var24 (str.++ var25 var26)))
(assert (= var26 (str.++ var27 var28)))
(assert (= var28 (str.++ var29 var30)))
(assert (= var30 (str.++ var31 var32)))
(assert (= var32 (str.++ var33 var34)))
(assert (= var34 (str.++ var35 var36)))
(assert (= var36 (str.++ var37 var38)))
(assert (= var38 (str.++ var39 var40)))
(assert (= var40 (str.++ var41 var42)))
(assert (= var42 (str.++ var43 var44)))
(assert (= var44 (str.++ var45 var46)))
(assert (= var46 (str.++ var47 var48)))
(assert (= var48 (str.++ var49 var50)))
(assert (= var50 (str.++ var51 var52)))
(assert (= var52 (str.++ var53 var54)))
(assert (= var54 (str.++ var55 var56)))
(assert (= var56 (str.++ var57 var58)))
(assert (= var58 (str.++ var59 var60)))
(assert (= var0 "solution"))
(assert (= """" (str.at var49 315)))
(assert (= "_" (str.at var2 992)))
(assert (= "S" (str.at var32 716)))
(assert (= "/" (str.at var33 593)))
(assert (= "+" (str.at var50 705)))
(assert (= "G" (str.at var38 842)))
(assert (= "Y" (str.at var36 923)))
(assert (= "u" (str.at var48 1)))
(assert (= "'" (str.at var53 939)))
(assert (= "(" (str.at var54 515)))
(assert (= "p" (str.at var49 82)))
(assert (= "p" (str.at var13 913)))
(assert (= ";" (str.at var0 523)))
(assert (= "E" (str.at var35 229)))
(assert (= "'" (str.at var50 505)))
(assert (= "z" (str.at var18 57)))
(assert (= "L" (str.at var6 271)))
(assert (= "a" (str.at var5 568)))
(assert (= "@" (str.at var31 318)))
(assert (= "$" (str.at var38 948)))
(assert (= "&" (str.at var32 480)))
(assert (= "k" (str.at var17 27)))
(assert (= "i" (str.at var48 89)))
(assert (= "4" (str.at var59 87)))
(assert (= "(" (str.at var27 132)))
(assert (= "k" (str.at var6 659)))
(assert (= "=" (str.at var54 295)))
(assert (= "R" (str.at var3 646)))
(assert (= "9" (str.at var20 995)))
(assert (= "_" (str.at var45 788)))
(assert (= "*" (str.at var44 711)))
(assert (= "l" (str.at var59 452)))
(assert (= "V" (str.at var51 229)))
(assert (= "j" (str.at var17 896)))
(assert (= "5" (str.at var26 406)))
(assert (= "i" (str.at var29 224)))
(assert (= "?" (str.at var54 296)))
(assert (= "X" (str.at var44 492)))
(assert (= "Q" (str.at var3 911)))
(assert (= "J" (str.at var31 451)))
(assert (= ";" (str.at var38 288)))
(assert (= "i" (str.at var29 805)))
(assert (= "w" (str.at var42 794)))
(assert (= "?" (str.at var42 123)))
(assert (= "=" (str.at var9 672)))
(assert (= "4" (str.at var5 555)))
(assert (= "j" (str.at var54 267)))
(assert (= "U" (str.at var30 32)))
(assert (= "c" (str.at var44 185)))
(assert (= "^" (str.at var43 5)))
(assert (= "S" (str.at var4 815)))
(assert (= "F" (str.at var43 113)))
(assert (= "." (str.at var16 806)))
(assert (= "_" (str.at var32 491)))
(assert (= "6" (str.at var11 650)))
(assert (= ";" (str.at var21 608)))
(assert (= "b" (str.at var40 236)))
(assert (= "f" (str.at var13 467)))
(assert (= "~" (str.at var32 953)))
(assert (= "e" (str.at var57 797)))
(assert (= "U" (str.at var51 562)))
(assert (= "x" (str.at var11 336)))
(assert (= "R" (str.at var46 480)))
(assert (= "'" (str.at var28 354)))
(assert (= "u" (str.at var36 167)))
(assert (= "z" (str.at var31 616)))
(assert (= "@" (str.at var3 40)))
(assert (= "u" (str.at var37 800)))
(assert (= "`" (str.at var41 644)))
(assert (= "d" (str.at var12 753)))
(assert (= "j" (str.at var46 774)))
(assert (= "W" (str.at var59 886)))
(assert (= "i" (str.at var0 533)))
(assert (= "g" (str.at var52 138)))
(assert (= "&" (str.at var5 985)))
(assert (= "\\" (str.at var13 561)))
(assert (= "v" (str.at var49 954)))
(assert (= "&" (str.at var7 320)))
(assert (= "'" (str.at var33 451)))
(assert (= "R" (str.at var40 854)))
(assert (= "m" (str.at var28 766)))
(assert (= ":" (str.at var10 970)))
(assert (= "Q" (str.at var18 874)))
(assert (= "n" (str.at var26 775)))
(assert (= "o" (str.at var43 547)))
(assert (= "." (str.at var51 924)))
(assert (= "#" (str.at var2 690)))
(assert (= "j" (str.at var9 887)))
(assert (= "'" (str.at var44 418)))
(assert (= "b" (str.at var1 472)))
(assert (= "I" (str.at var15 987)))
(assert (= ")" (str.at var58 971)))
(assert (= "H" (str.at var24 947)))
(assert (= "4" (str.at var49 144)))
(assert (= "K" (str.at var22 870)))
(assert (= "W" (str.at var1 702)))
(assert (= "H" (str.at var8 470)))
(assert (= "b" (str.at var30 892)))
(assert (= "d" (str.at var21 744)))
(assert (= "S" (str.at var45 582)))
(assert (= "M" (str.at var49 227)))
(assert (= "i" (str.at var31 556)))
(assert (= "z" (str.at var46 835)))
(assert (= "K" (str.at var49 717)))
(assert (= "~" (str.at var7 104)))
(assert (= "t" (str.at var42 210)))
(assert (= "W" (str.at var7 390)))
(assert (= "2" (str.at var35 753)))
(assert (= "v" (str.at var39 361)))
(assert (= "-" (str.at var18 24)))
(assert (= "!" (str.at var1 571)))
(assert (= "F" (str.at var30 273)))
(assert (= "," (str.at var49 5)))
(assert (= "4" (str.at var2 849)))
(assert (= "r" (str.at var36 732)))
(assert (= ":" (str.at var48 387)))
(assert (= "\\" (str.at var44 417)))
(assert (= "w" (str.at var26 772)))
(assert (= "d" (str.at var27 639)))
(assert (= "B" (str.at var49 278)))
(assert (= "B" (str.at var11 323)))
(assert (= "Z" (str.at var33 950)))
(assert (= "G" (str.at var57 68)))
(assert (= "q" (str.at var60 425)))
(assert (= "J" (str.at var43 516)))
(assert (= "e" (str.at var5 880)))
(assert (= ":" (str.at var53 445)))
(assert (= "c" (str.at var24 417)))
(assert (= "[" (str.at var51 511)))
(assert (= "c" (str.at var51 507)))
(assert (= "G" (str.at var29 660)))
(assert (= "d" (str.at var7 394)))
(assert (= "(" (str.at var47 324)))
(assert (= "~" (str.at var59 235)))
(assert (= "_" (str.at var49 953)))
(assert (= "V" (str.at var46 970)))
(assert (= "e" (str.at var3 33)))
(assert (= "-" (str.at var56 821)))
(assert (= "3" (str.at var17 167)))
(assert (= "O" (str.at var46 760)))
(assert (= "U" (str.at var6 820)))
(assert (= "B" (str.at var52 899)))
(assert (= "n" (str.at var4 565)))
(assert (= "e" (str.at var45 563)))
(assert (= "F" (str.at var6 395)))
(assert (= "w" (str.at var54 419)))
(assert (= "Y" (str.at var27 551)))
(assert (= "[" (str.at var20 956)))
(assert (= "T" (str.at var17 721)))
(assert (= "]" (str.at var20 879)))
(assert (= "f" (str.at var3 665)))
(assert (= ")" (str.at var9 539)))
(assert (= "c" (str.at var40 40)))
(assert (= "O" (str.at var29 143)))
(assert (= "2" (str.at var54 895)))
(assert (= "9" (str.at var11 403)))
(assert (= "[" (str.at var30 519)))
(assert (= "m" (str.at var38 607)))
(assert (= "g" (str.at var35 568)))
(assert (= "b" (str.at var39 855)))
(assert (= "b" (str.at var59 838)))
(assert (= "y" (str.at var46 698)))
(assert (= "*" (str.at var59 58)))
(assert (= "?" (str.at var50 734)))
(assert (= "%" (str.at var27 790)))
(assert (= "~" (str.at var48 778)))
(assert (= "g" (str.at var12 240)))
(assert (= "I" (str.at var49 132)))
(assert (= "D" (str.at var15 513)))
(assert (= "j" (str.at var52 45)))
(assert (= "$" (str.at var2 64)))
(assert (= "Z" (str.at var6 917)))
(assert (= "Q" (str.at var14 147)))
(assert (= "m" (str.at var21 573)))
(assert (= "3" (str.at var30 527)))
(assert (= "`" (str.at var4 92)))
(assert (= "u" (str.at var54 278)))
(assert (= "J" (str.at var13 107)))
(assert (= "-" (str.at var60 73)))
(assert (= "H" (str.at var44 139)))
(assert (= "v" (str.at var28 184)))
(assert (= "$" (str.at var60 739)))
(assert (= "x" (str.at var16 61)))
(assert (= "." (str.at var55 243)))
(assert (= "i" (str.at var26 537)))
(assert (= "B" (str.at var45 948)))
(assert (= "1" (str.at var27 265)))
(assert (= "'" (str.at var19 244)))
(assert (= "?" (str.at var35 59)))
(assert (= "P" (str.at var26 391)))
(assert (= "l" (str.at var39 259)))
(assert (= ")" (str.at var51 564)))
(assert (= "2" (str.at var20 960)))
(assert (= "J" (str.at var36 950)))
(assert (= "v" (str.at var25 162)))
(assert (= "T" (str.at var24 525)))
(assert (= "U" (str.at var7 820)))
(assert (= "0" (str.at var8 731)))
(assert (= "+" (str.at var60 440)))
(assert (= "#" (str.at var4 524)))
(assert (= "W" (str.at var47 132)))
(assert (= "}" (str.at var53 364)))
(assert (= "J" (str.at var5 891)))
(assert (= "i" (str.at var4 340)))
(assert (= "t" (str.at var5 358)))
(assert (= "&" (str.at var55 975)))
(assert (= "?" (str.at var31 309)))
(assert (= "6" (str.at var49 300)))
(assert (= "m" (str.at var26 92)))
(assert (= "$" (str.at var36 190)))
(assert (= "H" (str.at var59 556)))
(assert (= "b" (str.at var38 978)))
(assert (= "5" (str.at var2 819)))
(assert (= "t" (str.at var60 548)))
(assert (= "T" (str.at var42 155)))
(assert (= "5" (str.at var12 933)))
(assert (= "b" (str.at var41 371)))
(assert (= "%" (str.at var37 922)))
(assert (= "/" (str.at var57 316)))
(assert (= "m" (str.at var7 452)))
(assert (= "W" (str.at var22 614)))
(assert (= "o" (str.at var41 458)))
(assert (= "F" (str.at var45 20)))
(assert (= "d" (str.at var26 988)))
(assert (= "z" (str.at var10 24)))
(assert (= "U" (str.at var36 642)))
(assert (= "." (str.at var46 55)))
(assert (= "m" (str.at var41 256)))
(assert (= "g" (str.at var51 149)))
(assert (= "X" (str.at var17 524)))
(assert (= "'" (str.at var18 918)))
(assert (= """" (str.at var41 938)))
(assert (= "!" (str.at var30 255)))
(assert (= "P" (str.at var58 487)))
(assert (= "z" (str.at var36 558)))
(assert (= "v" (str.at var56 501)))
(assert (= "Q" (str.at var54 76)))
(assert (= ">" (str.at var30 65)))
(assert (= "?" (str.at var38 818)))
(assert (= "6" (str.at var11 613)))
(assert (= "]" (str.at var56 359)))
(assert (= "8" (str.at var59 331)))
(assert (= "5" (str.at var45 942)))
(assert (= ">" (str.at var45 488)))
(assert (= "-" (str.at var5 363)))
(assert (= "'" (str.at var34 539)))
(assert (= "C" (str.at var28 659)))
(assert (= "~" (str.at var41 506)))
(assert (= "." (str.at var29 859)))
(assert (= "l" (str.at var0 972)))
(assert (= "8" (str.at var41 43)))
(assert (= "6" (str.at var9 877)))
(assert (= "Q" (str.at var20 31)))
(assert (= "[" (str.at var50 105)))
(assert (= "P" (str.at var41 286)))
(assert (= "2" (str.at var24 701)))
(assert (= "f" (str.at var60 296)))
(assert (= "+" (str.at var0 690)))
(assert (= "_" (str.at var13 487)))
(assert (= "G" (str.at var44 237)))
(assert (= "(" (str.at var9 635)))
(assert (= "b" (str.at var50 833)))
(assert (= "g" (str.at var58 937)))
(assert (= "i" (str.at var40 713)))
(assert (= """" (str.at var48 339)))
(assert (= "n" (str.at var14 289)))
(assert (= "h" (str.at var58 338)))
(assert (= "K" (str.at var8 700)))
(assert (= "@" (str.at var18 649)))
(assert (= "V" (str.at var8 446)))
(assert (= "\\" (str.at var18 876)))
(assert (= "C" (str.at var39 556)))
(assert (= "b" (str.at var49 42)))
(assert (= "f" (str.at var15 770)))
(assert (= "4" (str.at var51 559)))
(assert (= "]" (str.at var5 543)))
(assert (= "+" (str.at var5 344)))
(assert (= "O" (str.at var27 409)))
(assert (= "*" (str.at var24 292)))
(assert (= "'" (str.at var42 138)))
(assert (= "G" (str.at var33 525)))
(assert (= "N" (str.at var24 507)))
(assert (= "M" (str.at var34 544)))
(assert (= "z" (str.at var3 860)))
(assert (= "9" (str.at var51 447)))
(assert (= "^" (str.at var8 65)))
(assert (= "+" (str.at var50 102)))
(assert (= "j" (str.at var49 911)))
(assert (= "X" (str.at var34 191)))
(assert (= "(" (str.at var36 175)))
(assert (= "f" (str.at var42 229)))
(assert (= "V" (str.at var21 73)))
(assert (= "7" (str.at var3 821)))
(assert (= "L" (str.at var49 862)))
(assert (= "'" (str.at var28 266)))
(assert (= "@" (str.at var13 589)))
(assert (= "\\" (str.at var54 664)))
(assert (= "r" (str.at var50 627)))
(assert (= "[" (str.at var10 341)))
(assert (= ">" (str.at var32 37)))
(assert (= "A" (str.at var41 354)))
(assert (= "-" (str.at var54 853)))
(assert (= "6" (str.at var39 250)))
(assert (= "`" (str.at var4 233)))
(assert (= "5" (str.at var57 979)))
(assert (= "!" (str.at var55 138)))
(assert (= "D" (str.at var27 568)))
(assert (= "I" (str.at var56 902)))
(assert (= "}" (str.at var2 841)))
(assert (= "2" (str.at var42 219)))
(assert (= "y" (str.at var1 389)))
(assert (= "I" (str.at var3 342)))
(assert (= "a" (str.at var41 793)))
(assert (= "W" (str.at var55 511)))
(assert (= "L" (str.at var46 931)))
(assert (= "#" (str.at var38 622)))
(assert (= "T" (str.at var22 369)))
(assert (= ";" (str.at var19 921)))
(assert (= "/" (str.at var7 581)))
(assert (= "p" (str.at var34 327)))
(assert (= "v" (str.at var19 722)))
(assert (= "V" (str.at var48 409)))
(assert (= "K" (str.at var18 198)))
(assert (= "E" (str.at var9 186)))
(assert (= ">" (str.at var10 803)))
(assert (= "#" (str.at var29 447)))
(assert (= "U" (str.at var42 765)))
(assert (= "." (str.at var54 644)))
(assert (= "{" (str.at var28 503)))
(assert (= "1" (str.at var46 979)))
(assert (= "`" (str.at var31 526)))
(assert (= "|" (str.at var27 506)))
(assert (= "T" (str.at var32 163)))
(assert (= "," (str.at var24 192)))
(assert (= "z" (str.at var26 570)))
(assert (= ")" (str.at var20 465)))
(assert (= "{" (str.at var43 604)))
(assert (= "o" (str.at var7 547)))
(assert (= "N" (str.at var33 341)))
(assert (= "i" (str.at var12 592)))
(assert (= "]" (str.at var42 339)))
(assert (= "4" (str.at var6 719)))
(assert (= "/" (str.at var37 147)))
(assert (= "s" (str.at var43 517)))
(assert (= "_" (str.at var41 410)))
(assert (= "n" (str.at var14 408)))
(assert (= "k" (str.at var56 541)))
(assert (= "O" (str.at var42 997)))
(assert (= "Y" (str.at var32 561)))
(assert (= "3" (str.at var50 966)))
(assert (= "]" (str.at var53 376)))
(assert (= "7" (str.at var57 164)))
(assert (= "3" (str.at var33 274)))
(assert (= "g" (str.at var36 137)))
(assert (= "[" (str.at var43 618)))
(assert (= "J" (str.at var48 158)))
(assert (= "a" (str.at var41 994)))
(assert (= "b" (str.at var37 994)))
(assert (= "c" (str.at var24 406)))
(assert (= "b" (str.at var25 623)))
(assert (= ";" (str.at var11 526)))
(assert (= "R" (str.at var56 646)))
(assert (= "g" (str.at var20 393)))
(assert (= "e" (str.at var36 860)))
(assert (= "@" (str.at var9 151)))
(assert (= "5" (str.at var51 807)))
(assert (= "T" (str.at var56 668)))
(assert (= "N" (str.at var47 947)))
(assert (= "Q" (str.at var12 37)))
(assert (= "n" (str.at var7 457)))
(assert (= "6" (str.at var42 987)))
(assert (= "." (str.at var47 376)))
(assert (= "0" (str.at var22 14)))
(assert (= "5" (str.at var41 194)))
(assert (= "8" (str.at var29 500)))
(assert (= "+" (str.at var53 503)))
(assert (= "t" (str.at var25 418)))
(assert (= "H" (str.at var8 881)))
(assert (= "5" (str.at var50 869)))
(assert (= "[" (str.at var52 911)))
(assert (= "9" (str.at var14 496)))
(assert (= "Q" (str.at var20 556)))
(assert (= "X" (str.at var48 39)))
(assert (= "m" (str.at var28 784)))
(assert (= "+" (str.at var32 982)))
(assert (= "*" (str.at var31 111)))
(assert (= """" (str.at var26 67)))
(assert (= "}" (str.at var20 839)))
(assert (= "p" (str.at var28 214)))
(assert (= "l" (str.at var53 897)))
(assert (= "f" (str.at var39 827)))
(assert (= "K" (str.at var7 402)))
(assert (= "'" (str.at var32 131)))
(assert (= "+" (str.at var31 845)))
(assert (= "(" (str.at var22 667)))
(assert (= "'" (str.at var48 964)))
(assert (= "X" (str.at var29 809)))
(assert (= "w" (str.at var2 504)))
(assert (= "n" (str.at var2 120)))
(assert (= "," (str.at var49 228)))
(assert (= "X" (str.at var11 997)))
(assert (= ")" (str.at var34 397)))
(assert (= "R" (str.at var54 909)))
(assert (= "b" (str.at var41 419)))
(assert (= "b" (str.at var11 530)))
(assert (= "U" (str.at var10 951)))
(assert (= "-" (str.at var16 770)))
(assert (= "=" (str.at var47 466)))
(assert (= "/" (str.at var25 550)))
(assert (= "h" (str.at var53 476)))
(assert (= "c" (str.at var29 59)))
(assert (= "j" (str.at var20 741)))
(assert (= "%" (str.at var2 773)))
(assert (= "w" (str.at var15 811)))
(assert (= "/" (str.at var43 73)))
(assert (= "+" (str.at var16 535)))
(assert (= "-" (str.at var57 635)))
(assert (= "3" (str.at var20 48)))
(assert (= "p" (str.at var25 202)))
(assert (= ":" (str.at var53 627)))
(assert (= "|" (str.at var38 305)))
(assert (= "b" (str.at var46 834)))
(assert (= "d" (str.at var4 376)))
(assert (= "f" (str.at var50 999)))
(assert (= "Q" (str.at var52 692)))
(assert (= "H" (str.at var36 968)))
(assert (= "%" (str.at var10 197)))
(assert (= "3" (str.at var37 184)))
(assert (= "V" (str.at var18 398)))
(assert (= "h" (str.at var51 268)))
(assert (= "]" (str.at var42 806)))
(assert (= "N" (str.at var57 780)))
(assert (= "`" (str.at var14 329)))
(assert (= "{" (str.at var57 323)))
(assert (= "b" (str.at var18 396)))
(assert (= "&" (str.at var20 733)))
(assert (= "1" (str.at var30 686)))
(assert (= "{" (str.at var7 423)))
(assert (= "6" (str.at var19 88)))
(assert (= "f" (str.at var12 899)))
(assert (= "." (str.at var26 748)))
(assert (= "M" (str.at var13 81)))
(assert (= "Y" (str.at var12 867)))
(assert (= "$" (str.at var19 62)))
(assert (= "_" (str.at var53 651)))
(assert (= "K" (str.at var20 314)))
(assert (= "y" (str.at var44 789)))
(assert (= "K" (str.at var8 780)))
(assert (= "." (str.at var45 279)))
(assert (= "L" (str.at var56 70)))
(assert (= "D" (str.at var10 897)))
(assert (= "n" (str.at var28 842)))
(assert (= "y" (str.at var33 123)))
(assert (= "s" (str.at var8 542)))
(assert (= "i" (str.at var25 304)))
(assert (= "a" (str.at var44 43)))
(assert (= "u" (str.at var52 276)))
(assert (= "z" (str.at var21 143)))
(assert (= "J" (str.at var14 344)))
(assert (= "~" (str.at var28 979)))
(assert (= "H" (str.at var0 843)))
(assert (= "Q" (str.at var22 620)))
(assert (= "*" (str.at var20 753)))
(assert (= "'" (str.at var8 682)))
(assert (= """" (str.at var27 196)))
(assert (= "<" (str.at var32 273)))
(assert (= "]" (str.at var59 577)))
(assert (= "p" (str.at var2 343)))
(assert (= "|" (str.at var57 825)))
(assert (= "g" (str.at var40 716)))
(assert (= "x" (str.at var54 361)))
(assert (= "X" (str.at var4 936)))
(assert (= """" (str.at var19 20)))
(assert (= "Y" (str.at var55 846)))
(assert (= "?" (str.at var8 564)))
(assert (= "H" (str.at var44 970)))
(assert (= "t" (str.at var8 604)))
(assert (= "j" (str.at var60 819)))
(assert (= "n" (str.at var51 936)))
(assert (= "m" (str.at var56 500)))
(assert (= "+" (str.at var26 208)))
(assert (= "(" (str.at var23 946)))
(assert (= "E" (str.at var35 631)))
(assert (= "A" (str.at var22 361)))
(assert (= "B" (str.at var5 230)))
(assert (= "4" (str.at var39 236)))
(assert (= "+" (str.at var56 809)))
(assert (= "*" (str.at var48 898)))
(assert (= "[" (str.at var6 566)))
(assert (= "w" (str.at var57 816)))
(assert (= "A" (str.at var10 794)))
(assert (= "W" (str.at var31 544)))
(assert (= "C" (str.at var54 668)))
(assert (= "4" (str.at var48 242)))
(assert (= "z" (str.at var35 114)))
(assert (= "Y" (str.at var44 810)))
(assert (= "O" (str.at var30 992)))
(assert (= "S" (str.at var41 237)))
(assert (= "a" (str.at var26 730)))
(assert (= "G" (str.at var3 451)))
(assert (= "h" (str.at var51 816)))
(assert (= "%" (str.at var19 438)))
(assert (= "w" (str.at var39 585)))
(assert (= """" (str.at var59 285)))
(assert (= "7" (str.at var17 806)))
(assert (= "X" (str.at var24 211)))
(assert (= ":" (str.at var59 11)))
(assert (= "w" (str.at var27 771)))
(assert (= "d" (str.at var34 730)))
(assert (= "Z" (str.at var48 588)))
(assert (= "Y" (str.at var34 564)))
(assert (= "D" (str.at var51 355)))
(assert (= "?" (str.at var53 677)))
(assert (= "2" (str.at var31 637)))
(assert (= "G" (str.at var20 949)))
(assert (= "4" (str.at var47 615)))
(assert (= ":" (str.at var42 731)))
(assert (= ";" (str.at var22 591)))
(assert (= "B" (str.at var25 206)))
(assert (= "u" (str.at var57 311)))
(assert (= "^" (str.at var36 485)))
(check-sat)